NAME: random103
TYPE: TSP
DIMENSION: 103
EDGE_WEIGHT_TYPE: EXPLICIT
EDGE_WEIGHT_FORMAT: FULL_MATRIX
EDGE_WEIGHT_SECTION
0 130 32 130 13 130 130 29 21 130 130 130 130 41 17 12 15 26 130 19 130 130 130 15 130 31 21 19 130 130 14 130 130 15 43 130 130 130 130 130 130 130 130 32 130 130 14 130 130 130 130 10 130 130 4 130 130 19 130 42 130 130 130 130 130 28 130 130 130 130 34 130 37 130 130 130 130 36 41 38 33 130 29 130 32 130 130 41 130 130 5 29 21 17 130 130 130 130 23 130 33 130 18
130 0 130 130 130 26 130 130 130 32 130 31 130 130 130 130 130 130 10 130 130 130 130 130 130 130 130 130 130 130 130 130 14 130 80 130 15 55 130 130 130 130 5 130 130 22 130 130 130 130 12 130 130 130 130 12 130 130 43 29 130 9 130 38 130 130 130 130 13 26 130 130 130 43 130 25 32 130 130 130 130 130 130 18 130 130 130 35 3 130 130 130 130 130 30 28 130 130 130 28 130 21 130
32 130 0 130 38 130 17 130 27 43 24 25 20 130 130 130 29 24 130 130 130 17 130 130 16 25 130 15 130 36 130 130 130 39 130 130 130 130 18 17 34 29 130 130 13 130 130 130 130 36 130 130 30 130 32 130 130 16 130 130 130 130 130 30 12 48 34 130 130 32 31 34 12 130 130 130 130 46 130 130 130 26 30 130 6 24 130 130 130 12 28 23 130 24 130 28 130 37 130 28 28 130 130
130 130 130 0 130 44 26 130 130 34 20 130 24 130 130 130 130 130 130 130 130 27 23 130 30 130 130 130 130 130 130 130 53 130 130 16 130 130 25 130 33 36 130 130 130 130 130 58 15 130 130 130 30 61 130 130 10 130 29 130 18 130 15 29 35 130 130 7 130 43 130 25 130 130 12 47 35 130 130 130 130 18 130 130 130 130 130 130 130 130 130 130 130 130 130 130 130 53 130 130 130 130 130
13 130 38 130 0 130 130 41 16 130 130 130 130 29 130 16 28 22 130 30 130 130 130 27 130 27 9 23 130 130 27 130 130 3 32 130 130 130 130 130 130 130 130 24 130 130 12 130 130 130 130 21 130 130 17 130 130 29 130 37 130 130 130 130 130 16 130 130 130 130 28 130 39 130 130 130 130 25 53 26 21 130 130 130 39 130 130 32 130 130 17 26 130 29 130 130 130 130 130 130 130 130 6
130 26 130 44 130 0 130 130 130 11 130 130 130 130 130 130 130 130 24 130 130 130 22 130 130 130 130 130 130 130 130 130 12 130 130 47 14 130 130 130 130 130 21 130 130 36 130 130 50 130 37 130 130 130 130 17 130 130 18 130 53 34 130 24 130 130 130 47 32 23 130 23 130 130 49 3 10 130 130 130 130 46 130 39 130 130 130 130 23 130 130 130 130 130 130 28 130 130 130 28 130 130 130
130 130 17 26 130 130 0 130 130 33 8 130 6 130 130 130 130 130 130 130 130 4 26 130 9 130 130 32 130 130 130 130 130 130 130 130 130 130 1 6 130 25 130 130 13 130 130 130 130 130 130 130 22 130 130 130 130 130 130 130 130 130 32 20 11 130 130 130 130 29 130 21 20 130 130 130 130 130 130 130 130 9 130 130 19 130 130 130 130 12 130 130 130 130 130 130 130 130 130 29 38 130 130
29 130 130 130 41 130 130 0 130 130 130 130 130 130 14 29 18 130 130 12 13 130 130 14 130 130 48 130 21 23 16 4 130 44 64 130 130 69 130 130 130 130 130 52 130 130 36 37 130 20 130 21 130 36 25 130 130 130 130 130 130 130 130 130 130 57 18 130 130 130 130 130 130 130 130 130 130 130 13 130 62 130 19 130 130 130 17 130 130 130 130 130 10 22 87 130 17 38 12 130 130 130 45
21 130 27 130 16 130 130 130 0 130 130 24 130 25 35 30 31 7 130 39 130 130 130 35 130 11 21 14 130 130 33 130 130 15 45 130 130 30 130 130 130 130 130 39 40 28 27 130 130 130 130 30 130 130 24 130 130 25 130 22 130 130 130 130 32 21 130 130 130 130 13 130 24 28 130 130 130 20 130 24 24 130 42 34 30 24 130 22 130 31 21 10 130 30 39 130 130 130 40 31 44 36 21
130 32 43 34 130 11 33 130 130 0 37 31 38 130 130 130 130 130 26 130 130 37 12 130 130 130 130 130 130 130 130 130 19 130 130 40 23 130 32 130 130 130 27 130 45 35 130 130 42 130 130 130 53 130 130 26 44 130 14 130 45 37 49 14 31 130 130 38 40 18 130 12 34 130 41 14 1 130 130 130 130 35 130 40 130 31 130 130 29 32 130 130 130 130 130 23 130 130 130 23 130 130 130
130 130 24 20 130 130 8 130 130 37 0 130 4 130 130 130 130 130 130 130 130 7 28 130 10 130 130 130 130 130 130 130 130 130 130 37 130 130 8 7 21 21 130 130 15 130 130 43 130 130 130 130 16 130 130 130 26 130 39 130 38 130 24 25 19 130 130 27 130 36 130 25 130 130 130 130 130 130 130 130 130 3 130 130 130 130 130 130 130 20 130 130 130 130 130 130 130 37 130 36 39 130 130
130 31 25 130 130 130 130 130 24 31 130 0 130 34 130 130 130 17 22 130 130 130 130 130 130 12 130 25 130 130 130 130 32 130 130 130 130 130 30 130 130 130 31 130 130 13 130 130 130 130 130 130 130 130 130 130 130 130 130 9 130 28 130 23 20 130 130 130 130 13 15 28 13 36 130 130 130 33 130 130 130 130 130 22 130 1 130 25 31 19 130 13 130 130 37 8 130 130 130 8 130 28 130
130 130 20 24 130 130 6 130 130 38 4 130 0 130 130 130 130 130 130 130 130 4 30 130 6 130 130 130 130 130 130 130 130 130 130 130 130 130 6 3 20 19 130 130 11 130 130 41 130 130 130 130 16 130 130 130 30 130 130 130 42 130 28 25 16 130 130 130 130 35 130 26 130 130 130 130 130 130 130 130 130 6 130 130 21 130 130 130 130 17 130 130 130 130 130 130 130 35 130 35 36 130 130
41 130 130 130 29 130 130 130 25 130 130 34 130 0 130 130 130 26 40 130 130 130 130 130 130 26 26 38 130 130 130 130 130 27 37 130 130 13 130 130 130 130 130 130 130 27 130 130 130 130 43 130 130 130 130 130 130 130 130 26 130 34 130 130 130 17 130 130 130 130 20 130 130 3 130 130 130 5 130 4 14 130 130 25 130 130 130 9 130 130 43 130 130 130 19 40 130 130 130 130 130 22 130
17 130 130 130 130 130 130 14 35 130 130 130 130 130 0 21 5 130 130 10 18 130 130 5 130 130 130 27 24 130 3 13 130 130 130 130 130 130 130 130 130 130 130 44 130 130 130 130 130 130 130 10 130 130 12 130 130 18 130 130 130 130 130 130 130 130 18 130 130 130 130 130 130 130 130 130 130 130 24 130 130 130 15 130 130 130 16 130 130 130 14 130 4 10 130 130 15 130 7 130 21 130 130
12 130 130 130 16 130 130 29 30 130 130 130 130 130 21 0 22 36 130 17 38 130 130 16 130 130 20 31 44 130 19 31 130 19 36 130 130 42 130 130 130 130 130 24 130 130 7 130 130 130 130 10 130 59 13 130 130 30 130 130 130 130 130 130 130 29 130 130 130 130 43 130 130 130 130 130 130 40 42 130 35 130 130 130 130 130 130 130 130 130 16 130 24 26 64 130 130 130 28 130 130 130 17
15 130 29 130 28 130 130 18 31 130 130 130 130 130 5 22 0 35 130 14 20 130 130 9 130 130 130 22 24 24 5 17 130 30 130 130 130 130 130 130 130 42 130 130 35 130 28 130 130 21 130 12 130 130 11 130 130 13 130 130 130 130 130 130 130 43 18 130 130 130 44 130 39 130 130 130 130 50 27 130 130 130 14 130 26 130 15 130 130 130 12 37 9 5 130 130 14 35 8 130 19 130 130
26 130 24 130 22 130 130 130 7 130 130 17 130 26 130 36 35 0 130 130 130 130 130 130 130 5 28 14 130 130 130 130 130 22 50 130 130 130 130 130 130 130 130 130 37 22 34 130 130 130 130 35 130 130 29 130 130 26 130 16 130 130 130 130 27 26 130 130 130 130 9 130 19 29 130 130 130 22 130 25 28 130 130 29 28 17 130 20 130 26 25 4 130 32 37 25 130 130 130 25 45 32 27
130 10 130 130 130 24 130 130 130 26 130 22 130 40 130 130 130 130 0 130 130 130 36 130 130 31 130 130 130 130 130 130 13 130 130 130 17 130 46 130 130 130 9 130 130 15 130 130 130 130 21 130 130 130 130 16 130 130 39 21 130 12 130 29 38 130 130 130 23 17 30 32 33 40 130 24 26 41 130 130 130 130 130 15 130 22 130 31 9 37 130 130 130 130 31 18 130 130 130 18 130 21 130
19 130 130 130 30 130 130 12 39 130 130 130 130 130 10 17 14 130 130 0 23 130 130 6 130 130 36 130 30 130 10 14 130 33 52 130 130 57 130 130 130 130 130 39 130 130 24 130 130 130 130 9 130 45 16 130 130 130 130 130 130 130 130 130 130 45 130 130 130 130 130 130 130 130 130 130 130 130 25 130 50 130 24 130 130 130 23 130 130 130 19 130 10 20 77 130 23 130 15 130 130 130 33
130 130 130 130 130 130 130 13 130 130 130 130 130 130 18 38 20 130 130 23 0 130 130 22 130 130 56 130 8 10 21 9 130 130 74 130 130 130 130 130 130 39 130 62 40 130 45 24 130 8 130 130 130 23 30 130 130 28 130 130 130 130 130 130 130 130 7 130 130 130 130 130 130 130 130 130 130 130 10 130 130 130 11 130 36 130 7 130 130 130 32 130 14 21 130 130 9 25 12 130 15 130 52
130 130 17 27 130 130 4 130 130 37 7 130 4 130 130 130 130 130 130 130 130 0 30 130 6 130 130 32 130 41 130 130 130 130 130 130 130 130 5 2 23 21 130 130 9 130 130 130 130 42 130 130 18 130 130 130 130 31 130 130 130 130 31 24 13 130 42 130 130 33 130 25 21 130 130 130 130 130 130 130 130 9 39 130 17 130 130 130 130 14 130 130 130 38 130 130 130 35 130 32 34 130 130
130 130 130 23 130 22 26 130 130 12 28 130 30 130 130 130 130 130 36 130 130 30 0 130 35 130 130 130 130 130 130 130 31 130 130 30 35 130 25 130 47 48 38 130 130 130 130 70 32 130 130 130 43 130 130 38 32 130 12 130 35 130 37 12 28 130 130 27 52 24 130 7 130 130 30 25 12 130 130 130 130 25 130 130 130 130 130 130 130 29 130 130 130 130 130 28 130 130 130 28 130 130 130
15 130 130 130 27 130 130 14 35 130 130 130 130 130 5 16 9 130 130 6 22 130 130 0 130 130 34 130 130 130 4 15 130 130 52 130 130 130 130 130 130 130 130 40 130 130 23 130 130 130 130 7 130 130 11 130 130 130 130 130 130 130 130 130 130 130 130 130 130 130 130 130 130 130 130 130 130 130 26 130 130 130 20 130 130 130 20 130 130 130 14 130 8 14 130 130 20 130 12 130 130 130 31
130 130 16 30 130 130 9 130 130 130 10 130 6 130 130 130 130 130 130 130 130 6 35 130 0 130 130 31 130 36 130 130 130 130 130 130 130 130 10 4 19 16 130 130 5 130 130 36 130 37 130 130 15 38 130 130 35 28 130 130 48 130 32 29 16 130 37 130 130 130 130 31 24 130 130 130 130 130 130 130 130 12 34 130 15 130 130 130 130 17 130 130 130 34 130 130 130 30 130 130 29 130 130
31 130 25 130 27 130 130 130 11 130 130 12 130 26 130 130 130 5 31 130 130 130 130 130 130 0 130 17 130 130 130 130 130 26 130 130 130 130 130 130 130 130 130 130 130 17 130 130 130 130 130 130 130 130 130 130 130 30 130 11 130 130 130 34 130 29 130 130 130 26 7 130 17 29 130 130 130 23 130 26 31 130 130 25 29 12 130 19 130 24 30 2 130 130 35 20 130 130 130 20 130 29 130
21 130 130 130 9 130 130 48 21 130 130 130 130 26 130 20 130 28 130 36 56 130 130 34 130 130 0 31 60 130 130 49 130 7 24 130 130 21 130 130 130 130 130 18 130 130 14 130 130 130 68 28 130 74 130 130 130 130 130 130 130 130 130 130 130 9 130 130 130 130 30 130 130 28 130 130 130 22 61 22 14 130 130 130 130 130 130 31 130 130 25 130 41 130 45 130 130 130 130 130 130 46 3
19 130 15 130 23 130 32 130 14 130 130 25 130 38 27 31 22 14 130 130 130 32 130 130 31 17 31 0 130 39 25 130 130 24 55 130 130 130 33 32 130 42 130 130 27 130 32 130 130 37 130 27 130 130 20 130 130 12 130 28 130 130 130 40 24 34 35 130 130 36 23 130 18 130 130 130 130 34 130 37 38 130 30 130 16 25 130 34 130 23 16 15 130 19 130 32 130 44 30 31 31 130 30
130 130 130 130 130 130 130 21 130 130 130 130 130 130 24 44 24 130 130 30 8 130 130 130 130 130 60 130 0 4 130 17 130 130 80 130 130 130 130 130 37 33 130 68 36 130 51 17 130 4 130 130 130 16 130 130 130 29 130 130 130 130 63 130 130 130 6 130 130 130 130 130 130 130 130 130 130 130 14 130 130 130 11 130 34 130 9 130 130 130 130 130 21 24 130 130 10 17 17 130 12 130 57
130 130 36 130 130 130 130 23 130 130 130 130 130 130 130 130 24 130 130 130 10 41 130 130 36 130 130 39 4 0 130 19 130 130 130 130 130 130 130 40 34 29 130 68 32 130 130 15 130 3 130 130 35 14 130 130 130 26 130 130 130 130 59 130 46 130 6 130 130 130 130 130 130 130 130 130 130 130 18 130 130 130 10 130 30 130 8 130 130 130 35 130 130 22 130 130 9 15 17 130 8 130 130
14 130 130 130 27 130 130 16 33 130 130 130 130 130 3 19 5 130 130 10 21 130 130 4 130 130 130 25 130 130 0 16 130 130 130 130 130 130 130 130 130 130 130 42 130 130 24 130 130 130 130 8 130 130 10 130 130 17 130 130 130 130 130 130 130 130 130 130 130 130 130 130 130 130 130 130 130 130 130 130 130 130 17 130 130 130 18 130 130 130 12 130 7 10 130 130 17 130 10 130 23 130 130
130 130 130 130 130 130 130 4 130 130 130 130 130 130 13 31 17 130 130 14 9 130 130 15 130 130 49 130 17 19 16 0 130 130 67 130 130 130 130 130 130 130 130 54 130 130 38 34 130 17 130 22 130 32 25 130 130 28 130 130 130 130 130 130 130 130 14 130 130 130 130 130 130 130 130 130 130 130 12 130 130 130 16 130 130 130 13 130 130 130 27 130 9 20 130 130 14 34 10 130 21 130 46
130 14 130 53 130 12 130 130 130 19 130 32 130 130 130 130 130 130 13 130 130 130 31 130 130 130 130 130 130 130 130 130 0 130 130 58 6 130 48 130 130 130 9 130 130 28 130 130 130 130 25 130 130 130 130 7 130 130 30 33 130 22 130 28 43 130 130 130 21 21 130 30 41 130 130 12 19 130 130 130 130 52 130 29 130 32 130 44 11 42 130 130 130 130 130 25 130 130 130 25 130 33 130
15 130 39 130 3 130 130 44 15 130 130 130 130 27 130 19 30 22 130 33 130 130 130 130 130 26 7 24 130 130 130 130 130 0 31 130 130 25 130 130 130 130 130 24 130 130 14 130 130 130 130 24 130 130 20 130 130 31 130 35 130 130 130 130 130 13 130 130 130 130 26 130 39 130 130 130 130 22 56 23 18 130 130 130 40 130 130 29 130 130 19 25 130 31 45 130 130 130 130 130 130 130 6
43 80 130 130 32 130 130 64 45 130 130 130 130 37 130 36 130 50 130 52 74 130 130 52 130 130 24 55 80 130 130 67 130 31 0 130 130 25 130 130 130 130 130 13 130 63 30 130 130 130 80 46 130 95 130 130 130 130 130 59 130 71 130 130 130 24 130 130 90 130 50 130 130 38 130 130 130 35 78 34 25 130 130 62 130 130 130 46 130 130 47 130 60 130 54 130 130 130 130 130 130 59 26
130 130 130 16 130 47 130 130 130 40 37 130 130 130 130 130 130 130 130 130 130 130 30 130 130 130 130 130 130 130 130 130 58 130 130 0 61 130 41 130 47 130 130 130 130 130 130 73 4 130 130 130 45 130 130 130 15 130 29 130 6 130 24 40 130 130 130 10 79 53 130 35 130 130 6 49 40 130 130 130 130 34 130 130 130 130 130 130 130 130 130 130 130 130 130 130 130 130 130 130 130 130 130
130 15 130 130 130 14 130 130 130 23 130 130 130 130 130 130 130 130 17 130 130 130 35 130 130 130 130 130 130 130 130 130 6 130 130 61 0 130 130 130 130 130 10 130 130 32 130 130 130 130 24 130 130 130 130 4 130 130 32 130 130 24 130 33 130 130 130 130 18 27 130 34 130 130 130 12 22 130 130 130 130 130 130 32 130 130 130 130 12 130 130 130 130 130 45 31 130 130 130 31 130 36 130
130 55 130 130 130 130 130 69 30 130 130 130 130 13 130 42 130 130 130 57 130 130 130 130 130 130 21 130 130 130 130 130 130 25 25 130 130 0 130 130 130 130 130 30 130 39 35 130 130 130 54 130 130 130 130 130 130 130 130 38 130 46 130 130 130 13 130 130 64 130 30 130 130 12 130 130 130 13 82 10 7 130 130 38 130 130 130 22 130 130 130 130 130 130 29 130 130 130 130 130 130 34 24
130 130 18 25 130 130 1 130 130 32 8 30 6 130 130 130 130 130 46 130 130 5 25 130 10 130 130 33 130 130 130 130 48 130 130 41 130 130 0 6 26 25 130 130 13 130 130 46 130 130 130 130 22 130 130 130 32 130 37 130 43 130 31 19 11 130 130 32 130 29 130 21 20 130 130 130 33 130 130 130 130 8 130 130 20 30 130 130 130 12 130 130 130 130 130 29 130 130 130 29 39 130 130
130 130 17 130 130 130 6 130 130 130 7 130 3 130 130 130 130 130 130 130 130 2 130 130 4 130 130 32 130 40 130 130 130 130 130 130 130 130 6 0 21 19 130 130 8 130 130 130 130 40 130 130 17 130 130 130 130 31 130 130 130 130 31 26 14 130 41 130 130 130 130 27 23 130 130 130 130 130 130 130 130 10 38 130 17 130 130 130 130 15 130 130 130 37 130 130 130 34 130 130 33 130 130
130 130 34 33 130 130 130 130 130 130 21 130 20 130 130 130 130 130 130 130 130 23 47 130 19 130 130 130 37 34 130 130 130 130 130 47 130 130 26 21 0 6 130 130 21 130 130 26 45 36 130 130 5 28 130 130 33 40 130 130 46 130 26 130 35 130 38 38 130 130 130 45 130 130 41 130 130 130 52 130 130 22 37 130 30 130 130 130 130 130 130 130 130 43 130 130 130 21 130 130 31 130 130
130 130 29 36 130 130 25 130 130 130 21 130 19 130 130 130 42 130 130 130 39 21 48 130 16 130 130 42 33 29 130 130 130 130 130 130 130 130 25 19 6 0 130 130 17 130 130 23 130 31 130 130 6 25 130 130 37 35 130 130 50 130 30 45 33 130 32 130 130 130 130 45 40 130 130 130 130 130 47 130 130 23 32 130 26 130 34 130 130 33 49 130 130 38 130 130 33 17 40 130 26 130 130
130 5 130 130 130 21 130 130 130 27 130 31 130 130 130 130 130 130 9 130 130 130 38 130 130 130 130 130 130 130 130 130 9 130 130 130 10 130 130 130 130 130 0 130 130 24 130 130 130 130 17 130 130 130 130 8 130 130 38 29 130 14 130 34 130 130 130 130 15 23 130 36 130 130 130 20 27 130 130 130 130 130 130 22 130 130 130 38 2 130 130 130 130 130 130 26 130 130 130 26 130 26 130
32 130 130 130 24 130 130 52 39 130 130 130 130 130 44 24 130 130 130 39 62 130 130 40 130 130 18 130 68 68 42 54 130 24 13 130 130 30 130 130 130 130 130 0 130 130 18 83 130 66 83 34 130 83 35 130 130 130 130 130 130 130 130 130 130 23 63 130 130 130 130 130 130 41 130 130 130 36 65 35 26 130 130 130 130 130 60 46 130 130 37 130 48 130 58 130 130 81 52 130 130 61 18
130 130 13 130 130 130 13 130 40 45 15 130 11 130 130 130 35 37 130 130 40 9 130 130 5 130 130 27 36 32 130 130 130 130 130 130 130 130 13 8 21 17 130 130 0 130 130 34 130 33 130 130 17 36 130 130 130 23 130 130 130 130 37 32 16 130 33 130 130 38 130 34 23 130 130 130 130 130 130 130 130 17 30 130 11 34 33 130 130 17 37 36 130 29 130 130 32 28 36 36 25 130 130
130 22 130 130 130 36 130 130 28 35 130 13 130 27 130 130 130 22 15 130 130 130 130 130 130 17 130 130 130 130 130 130 28 130 63 130 32 39 130 130 130 130 24 130 130 0 130 130 130 130 29 130 130 130 130 31 130 130 130 6 130 17 130 32 130 39 130 130 35 18 15 130 25 28 130 38 35 27 130 30 38 130 130 10 130 13 130 18 23 32 130 19 130 130 25 15 130 130 130 15 130 15 130
14 130 130 130 12 130 130 36 27 130 130 130 130 130 130 7 28 34 130 24 45 130 130 23 130 130 14 32 51 130 24 38 130 14 30 130 130 35 130 130 130 130 130 18 130 130 0 130 130 130 130 17 130 65 17 130 130 33 130 130 130 130 130 130 130 23 130 130 130 130 39 130 130 130 130 130 130 35 49 130 28 130 130 130 130 130 130 130 130 130 19 130 30 31 58 130 130 130 130 130 130 130 11
130 130 130 58 130 130 130 37 130 130 43 130 41 130 130 130 130 130 130 130 24 130 70 130 36 130 130 130 17 15 130 34 130 130 130 73 130 130 46 130 26 23 130 83 34 130 130 0 70 18 130 130 29 2 130 130 58 38 130 130 71 130 50 130 130 130 21 63 130 130 130 66 130 130 67 130 130 130 29 130 130 45 24 130 37 130 130 130 130 130 130 130 130 36 130 130 130 6 130 130 20 130 130
130 130 130 15 130 50 130 130 130 42 130 130 130 130 130 130 130 130 130 130 130 130 32 130 130 130 130 130 130 130 130 130 130 130 130 4 130 130 130 130 45 130 130 130 130 130 130 70 0 130 130 130 42 130 130 130 12 130 32 130 3 130 20 130 130 130 130 8 130 130 130 36 130 130 4 52 42 130 130 130 130 33 130 130 130 130 130 130 130 130 130 130 130 130 130 130 130 130 130 130 130 130 130
130 130 36 130 130 130 130 20 130 130 130 130 130 130 130 130 21 130 130 130 8 42 130 130 37 130 130 37 4 3 130 17 130 130 130 130 130 130 130 40 36 31 130 66 33 130 130 18 130 0 130 130 37 17 130 130 130 25 130 130 130 130 130 130 46 130 3 130 130 130 130 130 130 130 130 130 130 130 17 130 130 130 7 130 30 130 6 130 130 130 32 130 130 20 130 130 7 17 14 130 8 130 130
130 12 130 130 130 37 130 130 130 130 130 130 130 43 130 130 130 130 21 130 130 130 130 130 130 130 68 130 130 130 130 130 25 130 80 130 24 54 130 130 130 130 17 83 130 29 130 130 130 130 0 130 130 130 130 20 130 130 55 36 130 13 130 130 130 60 130 130 11 38 42 130 130 42 130 36 130 47 130 47 57 130 130 22 130 130 130 37 15 130 130 130 130 130 26 38 130 130 130 130 130 21 130
10 130 130 130 21 130 130 21 30 130 130 130 130 130 10 10 12 35 130 9 130 130 130 7 130 130 28 27 130 130 8 22 130 24 46 130 130 130 130 130 130 130 130 34 130 130 17 130 130 130 130 0 130 130 7 130 130 22 130 130 130 130 130 130 130 36 130 130 130 130 44 130 130 130 130 130 130 45 33 130 130 130 130 130 130 130 130 130 130 130 11 130 14 17 130 130 130 130 18 130 130 130 24
130 130 30 30 130 130 22 130 130 53 16 130 16 130 130 130 130 130 130 130 130 18 43 130 15 130 130 130 130 35 130 130 130 130 130 45 130 130 22 17 5 6 130 130 17 130 130 29 42 37 130 130 0 31 130 130 31 38 54 130 44 130 24 41 31 130 38 35 130 130 130 41 130 130 39 130 130 130 130 130 130 18 37 130 27 130 130 130 130 130 130 130 130 42 130 130 130 24 130 130 31 130 130
130 130 130 61 130 130 130 36 130 130 130 130 130 130 130 59 130 130 130 45 23 130 130 130 38 130 74 130 16 14 130 32 130 130 95 130 130 130 130 130 28 25 130 83 36 130 65 2 130 17 130 130 31 0 130 130 60 38 130 130 74 130 53 130 130 130 20 130 130 130 130 130 130 130 130 130 130 130 27 130 130 47 23 130 38 130 23 130 130 130 130 130 36 36 130 130 23 8 31 130 20 130 71
4 130 32 130 17 130 130 25 24 130 130 130 130 130 12 13 11 29 130 16 30 130 130 11 130 130 130 20 130 130 10 25 130 20 130 130 130 130 130 130 130 130 130 35 130 130 17 130 130 130 130 7 130 130 0 130 130 17 130 130 130 130 130 130 130 33 130 130 130 130 37 130 38 130 130 130 130 40 130 130 130 130 25 130 30 130 26 130 130 130 4 32 17 14 130 130 26 130 19 130 29 130 22
130 12 130 130 130 17 130 130 130 26 130 130 130 130 130 130 130 130 16 130 130 130 38 130 130 130 130 130 130 130 130 130 7 130 130 130 4 130 130 130 130 130 8 130 130 31 130 130 130 130 20 130 130 130 130 0 130 130 35 130 130 21 130 36 130 130 130 130 14 28 130 37 130 130 130 16 25 130 130 130 130 130 130 29 130 130 130 130 9 130 130 130 130 130 42 31 130 130 130 31 130 33 130
130 130 130 10 130 130 130 130 130 44 26 130 30 130 130 130 130 130 130 130 130 130 32 130 35 130 130 130 130 130 130 130 130 130 130 15 130 130 32 130 33 37 130 130 130 130 130 58 12 130 130 130 31 60 130 130 0 130 37 130 14 130 8 130 130 130 130 7 130 130 130 35 130 130 9 130 130 130 130 130 130 24 130 130 130 130 130 130 130 130 130 130 130 130 130 130 130 54 130 130 130 130 130
19 130 16 130 29 130 130 130 25 130 130 130 130 130 18 30 13 26 130 130 28 31 130 130 28 30 130 12 29 26 17 28 130 31 130 130 130 130 130 31 40 35 130 130 23 130 33 38 130 25 130 22 38 38 17 130 130 0 130 130 130 130 130 130 28 43 23 130 130 130 35 130 26 130 130 130 130 45 130 130 130 130 18 130 13 35 21 130 130 28 14 28 21 8 130 130 19 33 19 41 19 130 130
130 43 130 29 130 18 130 130 130 14 39 130 130 130 130 130 130 130 39 130 130 130 12 130 130 130 130 130 130 130 130 130 30 130 130 29 32 130 37 130 130 130 38 130 130 130 130 130 32 130 55 130 54 130 130 35 37 130 0 130 35 130 44 23 40 130 130 31 49 31 130 18 130 130 32 20 13 130 130 130 130 37 130 130 130 130 130 130 40 40 130 130 130 130 130 36 130 130 130 36 130 130 130
42 29 130 130 37 130 130 130 22 130 130 9 130 26 130 130 130 16 21 130 130 130 130 130 130 11 130 28 130 130 130 130 33 35 59 130 130 38 130 130 130 130 29 130 130 6 130 130 130 130 36 130 130 130 130 130 130 130 130 0 130 23 130 31 130 35 130 130 130 19 9 130 20 28 130 130 130 25 130 28 35 130 130 15 130 9 130 17 29 27 41 13 130 130 28 15 130 130 130 15 130 20 130
130 130 130 18 130 53 130 130 130 45 38 130 42 130 130 130 130 130 130 130 130 130 35 130 48 130 130 130 130 130 130 130 130 130 130 6 130 130 43 130 46 50 130 130 130 130 130 71 3 130 130 130 44 74 130 130 14 130 35 130 0 130 21 130 130 130 130 11 130 130 130 40 130 130 6 55 45 130 130 130 130 36 130 130 130 130 130 130 130 130 130 130 130 130 130 130 130 67 130 130 130 130 130
130 9 130 130 130 34 130 130 130 37 130 28 130 34 130 130 130 130 12 130 130 130 130 130 130 130 130 130 130 130 130 130 22 130 71 130 24 46 130 130 130 130 14 130 130 17 130 130 130 130 13 130 130 130 130 21 130 130 130 23 130 0 130 40 130 130 130 130 20 27 30 130 130 34 130 34 37 37 130 130 130 130 130 10 130 130 130 27 12 130 130 130 130 130 21 27 130 130 130 27 130 12 130
130 130 130 15 130 130 32 130 130 49 24 130 28 130 130 130 130 130 130 130 130 31 37 130 32 130 130 130 63 59 130 130 130 130 130 24 130 130 31 31 26 30 130 130 37 130 130 50 20 130 130 130 24 53 130 130 8 130 44 130 21 130 0 42 43 130 130 15 130 130 130 39 130 130 18 130 130 130 77 130 130 23 130 130 130 130 130 130 130 130 130 130 130 130 130 130 130 47 130 130 56 130 130
130 38 30 29 130 24 20 130 130 14 25 23 25 130 130 130 130 130 29 130 130 24 12 130 29 34 130 40 130 130 130 130 28 130 130 40 33 130 19 26 130 45 34 130 32 32 130 130 130 130 130 130 41 130 130 36 130 130 23 31 130 40 42 0 18 130 130 130 130 14 130 5 22 130 130 27 15 130 130 130 130 24 130 39 34 23 130 130 35 18 130 35 130 130 130 17 130 130 130 17 56 130 130
130 130 12 35 130 130 11 130 32 31 19 20 16 130 130 130 130 27 38 130 130 13 28 130 16 130 130 24 130 46 130 130 43 130 130 130 130 130 11 14 35 33 130 130 16 130 130 130 130 46 130 130 31 130 130 130 130 28 40 130 130 130 43 18 0 130 45 130 130 22 130 22 9 130 130 130 32 130 130 130 130 20 41 130 16 19 130 130 130 1 39 25 130 36 130 20 130 44 130 20 38 130 130
28 130 48 130 16 130 130 57 21 130 130 130 130 17 130 29 43 26 130 45 130 130 130 130 130 29 9 34 130 130 130 130 130 13 24 130 130 13 130 130 130 130 130 23 130 39 23 130 130 130 60 36 130 130 33 130 130 43 130 35 130 130 130 130 130 0 130 130 130 130 26 130 45 19 130 130 130 13 69 13 5 130 130 40 50 130 130 23 130 130 32 29 130 44 36 130 130 130 130 130 130 39 12
130 130 34 130 130 130 130 18 130 130 130 130 130 130 18 130 18 130 130 130 7 42 130 130 37 130 130 35 6 6 130 14 130 130 130 130 130 130 130 41 38 32 130 63 33 130 130 21 130 3 130 130 38 20 130 130 130 23 130 130 130 130 130 130 45 130 0 130 130 130 130 130 130 130 130 130 130 130 17 130 130 130 5 130 29 130 3 130 130 130 29 130 16 18 130 130 4 20 11 130 8 130 130
130 130 130 7 130 47 130 130 130 38 27 130 130 130 130 130 130 130 130 130 130 130 27 130 130 130 130 130 130 130 130 130 130 130 130 10 130 130 32 130 38 130 130 130 130 130 130 63 8 130 130 130 35 130 130 130 7 130 31 130 11 130 15 130 130 130 130 0 130 130 130 31 130 130 4 50 39 130 130 130 130 25 130 130 130 130 130 130 130 130 130 130 130 130 130 130 130 130 130 130 130 130 130
130 13 130 130 130 32 130 130 130 40 130 130 130 130 130 130 130 130 23 130 130 130 52 130 130 130 130 130 130 130 130 130 21 130 90 79 18 64 130 130 130 130 15 130 130 35 130 130 130 130 11 130 130 130 130 14 130 130 49 130 130 20 130 130 130 130 130 130 0 38 130 130 130 52 130 30 40 130 130 130 130 130 130 30 130 130 130 46 15 130 130 130 130 130 37 41 130 130 130 130 130 31 130
130 26 32 43 130 23 29 130 130 18 36 13 35 130 130 130 130 130 17 130 130 33 24 130 130 26 130 36 130 130 130 130 21 130 130 53 27 130 29 130 130 130 23 130 38 18 130 130 130 130 38 130 130 130 130 28 130 130 31 19 130 27 130 14 22 130 130 130 38 0 130 18 20 130 130 26 18 130 130 130 130 35 130 26 130 13 130 35 24 21 130 27 130 130 130 5 130 130 130 5 130 32 130
34 130 31 130 28 130 130 130 13 130 130 15 130 20 130 43 44 9 30 130 130 130 130 130 130 7 30 23 130 130 130 130 130 26 50 130 130 30 130 130 130 130 130 130 130 15 39 130 130 130 42 44 130 130 37 130 130 35 130 9 130 30 130 130 130 26 130 130 130 130 0 130 23 22 130 130 130 17 130 21 27 130 130 20 36 16 130 12 130 130 34 8 130 41 28 23 130 130 130 23 130 23 31
130 130 34 25 130 23 21 130 130 12 25 28 26 130 130 130 130 130 32 130 130 25 7 130 31 130 130 130 130 130 130 130 30 130 130 35 34 130 21 27 45 45 36 130 34 130 130 66 36 130 130 130 41 130 130 37 35 130 18 130 40 130 39 5 22 130 130 31 130 18 130 0 27 130 34 26 13 130 130 130 130 23 130 130 130 28 130 130 130 22 130 130 130 130 130 22 130 130 130 22 130 130 130
37 130 12 130 39 130 20 130 24 34 130 13 130 130 130 130 39 19 33 130 130 21 130 130 24 17 130 18 130 130 130 130 41 39 130 130 130 130 20 23 130 40 130 130 23 25 130 130 130 130 130 130 130 130 38 130 130 26 130 20 130 130 130 22 9 45 130 130 130 20 23 27 0 130 130 130 130 40 130 130 130 130 130 130 18 12 130 130 130 8 34 16 130 34 130 16 130 130 130 16 40 130 130
130 43 130 130 130 130 130 130 28 130 130 36 130 3 130 130 130 29 40 130 130 130 130 130 130 29 28 130 130 130 130 130 130 130 38 130 130 12 130 130 130 130 130 41 130 28 130 130 130 130 42 130 130 130 130 130 130 130 130 28 130 34 130 130 130 19 130 130 52 130 22 130 130 0 130 130 130 8 130 6 15 130 130 25 130 130 130 11 130 130 130 130 130 130 17 42 130 130 130 130 130 22 130
130 130 130 12 130 49 130 130 130 41 130 130 130 130 130 130 130 130 130 130 130 130 30 130 130 130 130 130 130 130 130 130 130 130 130 6 130 130 130 130 41 130 130 130 130 130 130 67 4 130 130 130 39 130 130 130 9 130 32 130 6 130 18 130 130 130 130 4 130 130 130 34 130 130 0 51 41 130 130 130 130 29 130 130 130 130 130 130 130 130 130 130 130 130 130 130 130 130 130 130 130 130 130
130 25 130 47 130 3 130 130 130 14 130 130 130 130 130 130 130 130 24 130 130 130 25 130 130 130 130 130 130 130 130 130 12 130 130 49 12 130 130 130 130 130 20 130 130 38 130 130 52 130 36 130 130 130 130 16 130 130 20 130 55 34 130 27 130 130 130 50 30 26 130 26 130 130 51 0 13 130 130 130 130 49 130 40 130 130 130 130 22 130 130 130 130 130 55 30 130 130 130 31 130 45 130
130 32 130 35 130 10 130 130 130 1 130 130 130 130 130 130 130 130 26 130 130 130 12 130 130 130 130 130 130 130 130 130 19 130 130 40 22 130 33 130 130 130 27 130 130 35 130 130 42 130 130 130 130 130 130 25 130 130 13 130 45 37 130 15 32 130 130 39 40 18 130 13 130 130 41 13 0 130 130 130 130 36 130 40 130 130 130 130 28 33 130 130 130 130 130 23 130 130 130 24 130 130 130
36 130 46 130 25 130 130 130 20 130 130 33 130 5 130 40 50 22 41 130 130 130 130 130 130 23 22 34 130 130 130 130 130 22 35 130 130 13 130 130 130 130 130 36 130 27 35 130 130 130 47 45 130 130 40 130 130 45 130 25 130 37 130 130 130 13 130 130 130 130 17 130 40 8 130 130 130 0 130 3 11 130 130 27 50 33 130 10 130 130 38 24 130 49 24 40 130 130 130 130 130 25 24
41 130 130 130 53 130 130 13 130 130 130 130 130 130 24 42 27 130 130 25 10 130 130 26 130 130 61 130 14 18 130 12 130 56 78 130 130 82 130 130 52 47 130 65 130 130 49 29 130 17 130 33 130 27 130 130 130 130 130 130 130 130 77 130 130 69 17 130 130 130 130 130 130 130 130 130 130 130 0 130 74 130 20 130 130 130 17 130 130 130 130 130 20 30 98 130 18 31 19 130 24 130 58
38 130 130 130 26 130 130 130 24 130 130 130 130 4 130 130 130 25 130 130 130 130 130 130 130 26 22 37 130 130 130 130 130 23 34 130 130 10 130 130 130 130 130 35 130 30 130 130 130 130 47 130 130 130 130 130 130 130 130 28 130 130 130 130 130 13 130 130 130 130 21 130 130 6 130 130 130 3 130 0 10 130 130 29 130 130 130 12 130 130 41 130 130 130 23 130 130 130 130 130 130 26 130
33 130 130 130 21 130 130 62 24 130 130 130 130 14 130 35 130 28 130 50 130 130 130 130 130 31 14 38 130 130 130 130 130 18 25 130 130 7 130 130 130 130 130 26 130 38 28 130 130 130 57 130 130 130 130 130 130 130 130 35 130 130 130 130 130 5 130 130 130 130 27 130 130 15 130 130 130 11 74 10 0 130 130 38 130 130 130 21 130 130 37 130 130 130 32 130 130 130 130 130 130 36 17
130 130 26 18 130 46 9 130 130 35 3 130 6 130 130 130 130 130 130 130 130 9 25 130 12 130 130 130 130 130 130 130 52 130 130 34 130 130 8 10 22 23 130 130 17 130 130 45 33 130 130 130 18 47 130 130 24 130 37 130 36 130 23 24 20 130 130 25 130 35 130 23 130 130 29 49 36 130 130 130 130 0 130 130 130 130 130 130 130 21 130 130 130 130 130 130 130 39 130 36 42 130 130
29 130 30 130 130 130 130 19 42 130 130 130 130 130 15 130 14 130 130 24 11 39 130 20 34 130 130 30 11 10 17 16 130 130 130 130 130 130 130 38 37 32 130 130 30 130 130 24 130 7 130 130 37 23 25 130 130 18 130 130 130 130 130 130 41 130 5 130 130 130 130 130 130 130 130 130 130 130 20 130 130 130 0 130 25 130 3 130 130 130 25 130 14 13 130 130 2 22 9 130 6 130 130
130 18 130 130 130 39 130 130 34 40 130 22 130 25 130 130 130 29 15 130 130 130 130 130 130 25 130 130 130 130 130 130 29 130 62 130 32 38 130 130 130 130 22 130 130 10 130 130 130 130 22 130 130 130 130 29 130 130 130 15 130 10 130 39 130 40 130 130 30 26 20 130 130 25 130 40 40 27 130 29 38 130 130 0 130 23 130 17 20 130 130 130 130 130 17 24 130 130 130 24 130 6 130
32 130 6 130 39 130 19 130 30 130 130 130 21 130 130 130 26 28 130 130 36 17 130 130 15 29 130 16 34 30 130 130 130 40 130 130 130 130 20 17 30 26 130 130 11 130 130 37 130 30 130 130 27 38 30 130 130 13 130 130 130 130 130 34 16 50 29 130 130 130 36 130 18 130 130 130 130 50 130 130 130 130 25 130 0 30 28 130 130 16 27 27 130 21 130 130 27 31 29 34 22 130 130
130 130 24 130 130 130 130 130 24 31 130 1 130 130 130 130 130 17 22 130 130 130 130 130 130 12 130 25 130 130 130 130 32 130 130 130 130 130 30 130 130 130 130 130 34 13 130 130 130 130 130 130 130 130 130 130 130 35 130 9 130 130 130 23 19 130 130 130 130 13 16 28 12 130 130 130 130 33 130 130 130 130 130 23 30 0 130 26 130 18 40 13 130 130 130 8 130 130 130 8 130 130 130
130 130 130 130 130 130 130 17 130 130 130 130 130 130 16 130 15 130 130 23 7 130 130 20 130 130 130 130 9 8 18 13 130 130 130 130 130 130 130 130 130 34 130 60 33 130 130 130 130 6 130 130 130 23 26 130 130 21 130 130 130 130 130 130 130 130 3 130 130 130 130 130 130 130 130 130 130 130 17 130 130 130 3 130 28 130 0 130 130 130 27 130 13 15 130 130 2 22 8 130 8 130 130
41 35 130 130 32 130 130 130 22 130 130 25 130 9 130 130 130 20 31 130 130 130 130 130 130 19 31 34 130 130 130 130 44 29 46 130 130 22 130 130 130 130 38 46 130 18 130 130 130 130 37 130 130 130 130 130 130 130 130 17 130 27 130 130 130 23 130 130 46 35 12 130 130 11 130 130 130 10 130 12 21 130 130 17 130 26 130 0 37 130 42 21 130 130 17 31 130 130 130 31 130 16 130
130 3 130 130 130 23 130 130 130 29 130 31 130 130 130 130 130 130 9 130 130 130 130 130 130 130 130 130 130 130 130 130 11 130 130 130 12 130 130 130 130 130 2 130 130 23 130 130 130 130 15 130 130 130 130 9 130 130 40 29 130 12 130 35 130 130 130 130 15 24 130 130 130 130 130 22 28 130 130 130 130 130 130 20 130 130 130 37 0 130 130 130 130 130 33 26 130 130 130 26 130 24 130
130 130 12 130 130 130 12 130 31 32 20 19 17 130 130 130 130 26 37 130 130 14 29 130 17 24 130 23 130 130 130 130 42 130 130 130 130 130 12 15 130 33 130 130 17 32 130 130 130 130 130 130 130 130 130 130 130 28 40 27 130 130 130 18 1 130 130 130 130 21 130 22 8 130 130 130 33 130 130 130 130 21 130 130 16 18 130 130 130 0 38 24 130 130 130 19 130 130 130 19 38 130 130
5 130 28 130 17 130 130 130 21 130 130 130 130 43 14 16 12 25 130 19 32 130 130 14 130 30 25 16 130 35 12 27 130 19 47 130 130 130 130 130 130 49 130 37 37 130 19 130 130 32 130 11 130 130 4 130 130 14 130 41 130 130 130 130 39 32 29 130 130 130 34 130 34 130 130 130 130 38 130 41 37 130 25 130 27 40 27 42 130 38 0 28 19 13 130 130 26 45 20 47 29 130 22
29 130 23 130 26 130 130 130 10 130 130 13 130 130 130 130 37 4 130 130 130 130 130 130 130 2 130 15 130 130 130 130 130 25 130 130 130 130 130 130 130 130 130 130 36 19 130 130 130 130 130 130 130 130 32 130 130 28 130 13 130 130 130 35 25 29 130 130 130 27 8 130 16 130 130 130 130 24 130 130 130 130 130 130 27 13 130 21 130 24 28 0 130 34 130 21 130 130 130 21 46 130 130
21 130 130 130 130 130 130 10 130 130 130 130 130 130 4 24 9 130 130 10 14 130 130 8 130 130 41 130 21 130 7 9 130 130 60 130 130 130 130 130 130 130 130 48 130 130 30 130 130 130 130 14 130 36 17 130 130 21 130 130 130 130 130 130 130 130 16 130 130 130 130 130 130 130 130 130 130 130 20 130 130 130 14 130 130 130 13 130 130 130 19 130 0 13 130 130 13 130 5 130 20 130 38
17 130 24 130 29 130 130 22 30 130 130 130 130 130 10 26 5 32 130 20 21 38 130 14 34 130 130 19 24 22 10 20 130 31 130 130 130 130 130 37 43 38 130 130 29 130 31 36 130 20 130 17 42 36 14 130 130 8 130 130 130 130 130 130 36 44 18 130 130 130 41 130 34 130 130 130 130 49 30 130 130 130 13 130 21 130 15 130 130 130 13 34 13 0 130 130 14 33 11 130 16 130 130
130 30 130 130 130 130 130 87 39 130 130 37 130 19 130 64 130 37 31 77 130 130 130 130 130 35 45 130 130 130 130 130 130 45 54 130 45 29 130 130 130 130 130 58 130 25 58 130 130 130 26 130 130 130 130 42 130 130 130 28 130 21 130 130 130 36 130 130 37 130 28 130 130 17 130 55 130 24 98 23 32 130 130 17 130 130 130 17 33 130 130 130 130 130 0 40 130 130 130 130 130 11 48
130 28 28 130 130 28 130 130 130 23 130 8 130 40 130 130 130 25 18 130 130 130 28 130 130 20 130 32 130 130 130 130 25 130 130 130 31 130 29 130 130 130 26 130 130 15 130 130 130 130 38 130 130 130 130 31 130 130 36 15 130 27 130 17 20 130 130 130 41 5 23 22 16 42 130 30 23 40 130 130 130 130 130 24 130 8 130 31 26 19 130 21 130 130 40 0 130 130 130 1 130 30 130
130 130 130 130 130 130 130 17 130 130 130 130 130 130 15 130 14 130 130 23 9 130 130 20 130 130 130 130 10 9 17 14 130 130 130 130 130 130 130 130 130 33 130 130 32 130 130 130 130 7 130 130 130 23 26 130 130 19 130 130 130 130 130 130 130 130 4 130 130 130 130 130 130 130 130 130 130 130 18 130 130 130 2 130 27 130 2 130 130 130 26 130 13 14 130 130 0 22 8 130 8 130 130
130 130 37 53 130 130 130 38 130 130 37 130 35 130 130 130 35 130 130 130 25 35 130 130 30 130 130 44 17 15 130 34 130 130 130 130 130 130 130 34 21 17 130 81 28 130 130 6 130 17 130 130 24 8 130 130 54 33 130 130 67 130 47 130 44 130 20 130 130 130 130 130 130 130 130 130 130 130 31 130 130 39 22 130 31 130 22 130 130 130 45 130 130 33 130 130 22 0 30 130 17 130 130
23 130 130 130 130 130 130 12 40 130 130 130 130 130 7 28 8 130 130 15 12 130 130 12 130 130 130 30 17 17 10 10 130 130 130 130 130 130 130 130 130 40 130 52 36 130 130 130 130 14 130 18 130 31 19 130 130 19 130 130 130 130 130 130 130 130 11 130 130 130 130 130 130 130 130 130 130 130 19 130 130 130 9 130 29 130 8 130 130 130 20 130 5 11 130 130 8 30 0 130 15 130 130
130 28 28 130 130 28 29 130 31 23 36 8 35 130 130 130 130 25 18 130 130 32 28 130 130 20 130 31 130 130 130 130 25 130 130 130 31 130 29 130 130 130 26 130 36 15 130 130 130 130 130 130 130 130 130 31 130 41 36 15 130 27 130 17 20 130 130 130 130 5 23 22 16 130 130 31 24 130 130 130 130 36 130 24 34 8 130 31 26 19 47 21 130 130 130 1 130 130 130 0 130 130 130
33 130 28 130 130 130 38 130 44 130 39 130 36 130 21 130 19 45 130 130 15 34 130 130 29 130 130 31 12 8 23 21 130 130 130 130 130 130 39 33 31 26 130 130 25 130 130 20 130 8 130 130 31 20 29 130 130 19 130 130 130 130 56 56 38 130 8 130 130 130 130 130 40 130 130 130 130 130 24 130 130 42 6 130 22 130 8 130 130 38 29 46 20 16 130 130 8 17 15 130 0 130 130
130 21 130 130 130 130 130 130 36 130 130 28 130 22 130 130 130 32 21 130 130 130 130 130 130 29 46 130 130 130 130 130 33 130 59 130 36 34 130 130 130 130 26 61 130 15 130 130 130 130 21 130 130 130 130 33 130 130 130 20 130 12 130 130 130 39 130 130 31 32 23 130 130 22 130 45 130 25 130 26 36 130 130 6 130 130 130 16 24 130 130 130 130 130 11 30 130 130 130 130 130 0 130
18 130 130 130 6 130 130 45 21 130 130 130 130 130 130 17 130 27 130 33 52 130 130 31 130 130 3 30 57 130 130 46 130 6 26 130 130 24 130 130 130 130 130 18 130 130 11 130 130 130 130 24 130 71 22 130 130 130 130 130 130 130 130 130 130 12 130 130 130 130 31 130 130 130 130 130 130 24 58 130 17 130 130 130 130 130 130 130 130 130 22 130 38 130 48 130 130 130 130 130 130 130 0
EOF
